p cnf 130 467
3 -1 0
3 2 0
1 -2 -3 0
-5 -3 0
-5 4 0
3 -4 5 0
-8 6 0
-8 -7 0
-6 7 8 0
-10 -8 0
-10 -9 0
8 9 10 0
5 10 -11 0
-5 -10 -11 0
5 -10 11 0
-5 10 11 0
12 11 0
12 4 0
-11 -4 -12 0
-7 13 -14 0
7 -13 -14 0
-7 -13 14 0
7 13 14 0
15 13 0
15 -14 0
-13 14 -15 0
17 -9 0
17 16 0
9 -16 -17 0
18 -15 0
18 -17 0
15 17 -18 0
12 18 -19 0
-12 -18 -19 0
12 -18 19 0
-12 18 19 0
2 9 -21 0
-2 -9 -21 0
2 -9 21 0
-2 9 21 0
-3 -21 -22 0
3 21 -22 0
-3 21 22 0
3 -21 22 0
-23 20 0
-23 -22 0
-20 22 23 0
24 23 0
24 4 0
-23 -4 -24 0
25 14 0
25 24 0
-14 -24 -25 0
-27 13 0
-27 -26 0
-13 26 27 0
-30 28 0
-30 -29 0
-28 29 30 0
-31 -28 0
-31 17 0
28 -17 31 0
32 -30 0
32 31 0
30 -31 -32 0
33 27 0
33 -32 0
-27 32 -33 0
34 -33 0
34 17 0
33 -17 -34 0
-34 29 -35 0
34 -29 -35 0
-34 -29 35 0
34 29 35 0
-2 7 -36 0
2 -7 -36 0
-2 -7 36 0
2 7 36 0
-36 -4 -37 0
36 4 -37 0
-36 4 37 0
36 -4 37 0
-38 35 0
-38 37 0
-35 -37 38 0
39 -25 0
39 -38 0
25 38 -39 0
-15 -11 -40 0
15 11 -40 0
-15 11 40 0
15 -11 40 0
-30 1 -41 0
30 -1 -41 0
-30 -1 41 0
30 1 41 0
42 16 0
42 -13 0
-16 13 -42 0
43 -28 0
43 -42 0
28 42 -43 0
-44 -41 0
-44 -43 0
41 43 44 0
40 -44 -45 0
-40 44 -45 0
40 44 45 0
-40 -44 45 0
46 -39 0
46 45 0
39 -45 -46 0
-17 6 -47 0
17 -6 -47 0
-17 -6 47 0
17 6 47 0
-48 20 0
-48 -22 0
-20 22 48 0
4 17 -49 0
-4 -17 -49 0
4 -17 49 0
-4 17 49 0
48 -49 -50 0
-48 49 -50 0
48 49 50 0
-48 -49 50 0
50 -3 -51 0
-50 3 -51 0
50 3 51 0
-50 -3 51 0
47 51 -52 0
-47 -51 -52 0
47 -51 52 0
-47 51 52 0
53 3 0
53 -52 0
-3 52 -53 0
-54 27 0
-54 22 0
-27 -22 54 0
2 -54 -55 0
-2 54 -55 0
2 54 55 0
-2 -54 55 0
50 -54 -56 0
-50 54 -56 0
50 54 56 0
-50 -54 56 0
47 6 -57 0
-47 -6 -57 0
47 -6 57 0
-47 6 57 0
58 56 0
58 57 0
-56 -57 -58 0
-59 -55 0
-59 58 0
55 -58 59 0
60 -44 0
60 43 0
44 -43 -60 0
-61 17 0
-61 60 0
-17 -60 61 0
62 -37 0
62 -61 0
37 61 -62 0
63 59 0
63 62 0
-59 -62 -63 0
64 -53 0
64 63 0
53 -63 -64 0
-65 46 0
-65 -64 0
-46 64 65 0
-67 -30 0
-67 -66 0
30 66 67 0
15 -4 -68 0
-15 4 -68 0
15 4 68 0
-15 -4 68 0
-69 68 0
-69 15 0
-68 -15 69 0
-70 -67 0
-70 -69 0
67 69 70 0
-17 21 -71 0
17 -21 -71 0
-17 -21 71 0
17 21 71 0
-72 -41 0
-72 71 0
41 -71 72 0
-28 -44 -73 0
28 44 -73 0
-28 44 73 0
28 -44 73 0
73 -32 -74 0
-73 32 -74 0
73 32 74 0
-73 -32 74 0
75 72 0
75 74 0
-72 -74 -75 0
76 -70 0
76 75 0
70 -75 -76 0
77 28 0
77 -26 0
-28 26 -77 0
27 -77 -78 0
-27 77 -78 0
27 77 78 0
-27 -77 78 0
79 78 0
79 11 0
-78 -11 -79 0
80 9 0
80 -16 0
-9 16 -80 0
81 34 0
81 13 0
-34 -13 -81 0
80 -81 -82 0
-80 81 -82 0
80 81 82 0
-80 -81 82 0
-79 82 -83 0
79 -82 -83 0
-79 -82 83 0
79 82 83 0
84 76 0
84 -83 0
-76 83 -84 0
26 47 -85 0
-26 -47 -85 0
26 -47 85 0
-26 47 85 0
86 -85 0
86 -14 0
85 14 -86 0
85 -86 -87 0
-85 86 -87 0
85 86 87 0
-85 -86 87 0
88 20 0
88 87 0
-20 -87 -88 0
28 4 -89 0
-28 -4 -89 0
28 -4 89 0
-28 4 89 0
-2 89 -90 0
2 -89 -90 0
-2 -89 90 0
2 89 90 0
-30 90 -91 0
30 -90 -91 0
-30 -90 91 0
30 90 91 0
92 49 0
92 71 0
-49 -71 -92 0
92 47 -93 0
-92 -47 -93 0
92 -47 93 0
-92 47 93 0
94 91 0
94 93 0
-91 -93 -94 0
-95 88 0
-95 -94 0
-88 94 95 0
96 84 0
96 95 0
-84 -95 -96 0
98 -61 0
98 -97 0
61 97 -98 0
-99 -6 0
-99 -28 0
6 28 99 0
36 99 -100 0
-36 -99 -100 0
36 -99 100 0
-36 99 100 0
-101 98 0
-101 100 0
-98 -100 101 0
102 -96 0
102 101 0
96 -101 -102 0
-78 -16 -103 0
78 16 -103 0
-78 16 103 0
78 -16 103 0
104 43 0
104 -97 0
-43 97 -104 0
-105 103 0
-105 104 0
-103 -104 105 0
106 -15 0
106 -50 0
15 50 -106 0
107 54 0
107 41 0
-54 -41 -107 0
54 29 -108 0
-54 -29 -108 0
54 -29 108 0
-54 29 108 0
109 -107 0
109 -108 0
107 108 -109 0
110 -106 0
110 109 0
106 -109 -110 0
111 105 0
111 -110 0
-105 110 -111 0
112 -102 0
112 111 0
102 -111 -112 0
-113 -65 0
-113 -112 0
65 112 113 0
-114 8 0
-114 -40 0
-8 40 114 0
-13 114 -115 0
13 -114 -115 0
-13 -114 115 0
13 114 115 0
116 71 0
116 -97 0
-71 97 -116 0
115 116 -117 0
-115 -116 -117 0
115 -116 117 0
-115 116 117 0
-118 43 0
-118 8 0
-43 -8 118 0
-119 -35 0
-119 -99 0
35 99 119 0
120 119 0
120 -4 0
-119 4 -120 0
121 118 0
121 120 0
-118 -120 -121 0
-117 121 -122 0
117 -121 -122 0
-117 -121 122 0
117 121 122 0
-123 -86 0
-123 43 0
86 -43 123 0
-124 97 0
-124 -123 0
-97 123 124 0
-33 124 -125 0
33 -124 -125 0
-33 -124 125 0
33 124 125 0
-126 -71 0
-126 27 0
71 -27 126 0
127 -125 0
127 126 0
125 -126 -127 0
128 -122 0
128 127 0
122 -127 -128 0
-113 -128 -129 0
113 128 -129 0
-113 128 129 0
113 -128 129 0
-130 19 0
-130 129 0
-19 -129 130 0
-95 -53 -113 81 23 0
43 -5 -115 82 -102 66 0
-89 105 -28 0
109 -93 58 0
68 5 -28 -111 0
114 100 81 3 0
98 51 -111 124 0
95 -73 86 78 0
67 103 42 -31 -98 0
62 -31 26 0
-119 3 -86 0
-51 10 -130 0
99 -119 78 106 -8 0
-52 125 102 0
80 -113 0
-70 -68 112 125 0
18 108 0
1 88 0
-14 -84 -7 45 94 -65 0
-114 -101 45 0
40 71 0
59 39 -116 -100 -75 -118 0
93 19 1 -52 -122 0
30 127 0
49 5 101 0
-102 58 15 0
5 -83 -21 -105 20 -97 0
-66 -92 -54 11 0
-74 49 108 6 0
15 82 -6 -55 0
35 41 -2 126 -49 0
116 44 0
-107 -104 41 0
-67 59 -130 105 -5 0
88 49 -51 33 35 0
-24 -50 -43 0
117 122 0
-72 -44 58 10 -69 -84 0
77 -21 0
115 127 -19 0
82 91 -31 0
54 52 -93 -111 -91 0
30 -65 56 -117 46 119 0
-38 -49 -25 52 78 121 0
35 -74 -40 -82 77 0
-16 76 130 102 0
82 73 80 0
-21 96 64 80 24 -52 0
116 -76 57 75 104 0
-87 -20 126 0
-113 -15 0
-83 -89 -17 0
-12 -74 -31 -102 34 0
-27 -11 -35 -42 6 0
-120 57 -20 -126 -110 0
63 -49 -79 -83 0
92 -64 82 0
-26 -88 -13 -22 51 0
66 28 -113 54 -129 0
-44 -81 0
-65 -61 78 0
-72 112 1 64 -63 -96 0
-67 -117 0
7 57 -116 3 -58 -97 0
-92 -12 0
-88 -113 81 0
69 -106 -86 32 -125 55 0
-15 125 130 -82 -56 -107 0
-87 86 73 1 -85 0
124 -66 58 92 -20 -42 0
100 91 0
122 -6 0
15 -128 111 77 74 0
-114 56 67 -38 -2 81 0
36 -121 -58 31 0
-53 -20 41 0
92 116 -73 0
-109 -26 -57 106 63 0
130 0
